sat
(:max-memory         18.62
 :memory             18.53
 :nlsat-arith-var    3
 :nlsat-atoms        13
 :nlsat-bool-var     2
 :nlsat-clauses      9
 :nlsat-conflicts    1
 :nlsat-propagations 16
 :nlsat-stages       5
 :num-allocs         85870
 :rlimit-count       7686
 :time               0.01
 :total-time         0.02)
